c defined variables: 8 9 10 11 12 13 14 15 16 17 18 19 20 21 22 23 24 25 26 27 28 29 30 31 32 33 60 63 65 68 70 72 73 74 75 76 77 78 79 80 81 82 83 86 87 88 89 90 91 
p cnf 432 663
a 1 2 3 4 5 6 7 40 41 42 43 44 45 46 47 48 49 50 51 52 53 54 55 56 57 58 0
e 8 9 10 11 12 13 14 15 16 17 18 19 20 21 22 23 24 25 26 27 28 29 30 31 32 33 60 63 65 68 70 72 73 74 75 76 77 78 79 80 81 82 83 86 87 88 89 90 91 320 321 322 323 324 325 326 327 328 329 330 331 332 333 334 335 336 337 338 339 340 341 342 343 344 345 346 347 348 349 350 351 352 353 354 355 356 357 358 359 360 361 362 363 364 365 366 367 368 369 370 371 372 373 374 375 376 377 378 379 380 381 382 383 384 385 386 387 388 389 390 391 392 393 394 395 396 397 398 399 400 401 402 403 404 405 406 407 408 409 410 411 412 413 414 415 416 417 418 419 420 421 422 423 424 425 426 427 428 429 430 431 432 0
d 34 46 47 48 49 0
d 35 42 43 0
d 36 52 53 54 55 56 57 58 0
d 37 50 51 0
d 38 40 41 0
d 39 44 45 0
d 59 1 2 3 4 5 6 7 40 41 42 43 44 45 46 47 48 49 50 51 52 53 54 55 56 57 58 0
d 61 1 2 3 4 5 6 7 40 41 42 43 44 45 46 47 48 49 50 51 52 53 54 55 56 57 58 0
d 62 1 2 3 4 5 6 7 40 41 42 43 44 45 46 47 48 49 50 51 52 53 54 55 56 57 58 0
d 64 1 2 3 4 5 6 7 40 41 42 43 44 45 46 47 48 49 50 51 52 53 54 55 56 57 58 0
d 66 1 2 3 4 5 6 7 40 41 42 43 44 45 46 47 48 49 50 51 52 53 54 55 56 57 58 0
d 67 1 2 3 4 5 6 7 40 41 42 43 44 45 46 47 48 49 50 51 52 53 54 55 56 57 58 0
d 69 1 2 3 4 5 6 7 40 41 42 43 44 45 46 47 48 49 50 51 52 53 54 55 56 57 58 0
d 71 1 2 3 4 5 6 7 40 41 42 43 44 45 46 47 48 49 50 51 52 53 54 55 56 57 58 0
d 84 1 2 3 4 5 6 7 40 41 42 43 44 45 46 47 48 49 50 51 52 53 54 55 56 57 58 0
d 85 1 2 3 4 5 6 7 40 41 42 43 44 45 46 47 48 49 50 51 52 53 54 55 56 57 58 0
d 92 1 2 3 4 5 6 7 40 41 42 43 44 45 46 47 48 49 50 51 52 53 54 55 56 57 58 0
320 -8 0
-320 8 0
321 -9 0
-321 9 0
-322 -10 0
322 10 0
323 -11 0
-323 11 0
324 -12 0
-324 12 0
-325 -13 0
325 13 0
326 -14 0
-326 14 0
327 -15 0
-327 15 0
-328 -16 0
328 16 0
329 -17 0
-329 17 0
330 -18 0
-330 18 0
-331 -19 0
331 19 0
332 -20 0
-332 20 0
333 -21 0
-333 21 0
-334 -22 0
334 22 0
-335 -23 0
335 23 0
336 -24 0
-336 24 0
338 -25 0
-338 25 0
340 -26 0
-340 26 0
-342 -27 0
342 27 0
343 -28 0
-343 28 0
344 -29 0
-344 29 0
346 -30 0
-346 30 0
347 -31 0
-347 31 0
348 -32 0
-348 32 0
-352 -33 0
352 33 0
-59 -60 0
59 60 0
347 -63 0
-347 63 0
-356 -65 0
356 65 0
-357 -68 0
357 68 0
372 -70 0
-372 70 0
375 -72 0
-375 72 0
378 -73 0
-378 73 0
381 -74 0
-381 74 0
384 -75 0
-384 75 0
387 -76 0
-387 76 0
390 -77 0
-390 77 0
393 -78 0
-393 78 0
396 -79 0
-396 79 0
399 -80 0
-399 80 0
402 -81 0
-402 81 0
405 -82 0
-405 82 0
408 -83 0
-408 83 0
411 -86 0
-411 86 0
414 -87 0
-414 87 0
417 -88 0
-417 88 0
420 -89 0
-420 89 0
-426 -90 0
426 90 0
432 -91 0
-432 91 0
-8 1 0
-8 4 0
-1 -4 8 0
-9 -1 0
-9 -4 0
1 4 9 0
-8 10 0
-9 10 0
-10 8 9 0
-11 7 0
-11 10 0
-7 -10 11 0
-12 -7 0
-12 -10 0
7 10 12 0
-11 13 0
-12 13 0
-13 11 12 0
-14 4 0
-14 7 0
-4 -7 14 0
-15 1 0
-15 -13 0
-1 13 15 0
-14 16 0
-15 16 0
-16 14 15 0
-17 3 0
-17 6 0
-3 -6 17 0
-18 -3 0
-18 -6 0
3 6 18 0
-17 19 0
-18 19 0
-19 17 18 0
-20 16 0
-20 19 0
-16 -19 20 0
-21 -16 0
-21 -19 0
16 19 21 0
-20 22 0
-21 22 0
-22 20 21 0
-2 23 0
-5 23 0
-23 2 5 0
-24 2 0
-24 5 0
-2 -5 24 0
-25 3 0
-25 -22 0
-25 23 0
-3 22 -23 25 0
-26 6 0
-26 16 0
-26 23 0
-6 -16 -23 26 0
-24 27 0
-25 27 0
-26 27 0
-27 24 25 26 0
-28 -27 0
-28 23 0
27 -23 28 0
-29 3 0
-29 6 0
-29 -27 0
-3 -6 27 29 0
-30 -27 0
-30 -22 0
-30 16 0
27 22 -16 30 0
-31 2 0
-31 3 0
-31 5 0
-31 6 0
-2 -3 -5 -6 31 0
-32 2 0
-32 5 0
-32 -22 0
-32 16 0
-2 -5 22 -16 32 0
-28 33 0
-29 33 0
-30 33 0
-31 33 0
-32 33 0
-33 28 29 30 31 32 0
-59 -36 0
-59 35 0
36 -35 59 0
-59 -60 0
59 60 0
-61 3 0
-61 6 0
-61 -36 0
-3 -6 36 61 0
-62 -36 0
-62 -37 0
-62 34 0
36 37 -34 62 0
-63 2 0
-63 3 0
-63 5 0
-63 6 0
-2 -3 -5 -6 63 0
-64 2 0
-64 5 0
-64 -37 0
-64 34 0
-2 -5 37 -34 64 0
-60 65 0
-61 65 0
-62 65 0
-63 65 0
-64 65 0
-65 60 61 62 63 64 0
-66 7 0
-66 38 0
-7 -38 66 0
-67 -7 0
-67 -38 0
7 38 67 0
-66 68 0
-67 68 0
-68 66 67 0
-69 -27 36 0
-69 27 -36 0
69 -27 -36 0
69 27 36 0
-70 -33 65 0
-70 33 -65 0
70 -33 -65 0
70 33 65 0
-71 -22 37 0
-71 22 -37 0
71 -22 -37 0
71 22 37 0
-72 -13 68 0
-72 13 -68 0
72 -13 -68 0
72 13 68 0
-69 -70 -71 -72 73 0
-73 69 0
-73 70 0
-73 71 0
-73 72 0
-1 -40 -74 0
-1 40 74 0
1 -40 74 0
1 40 -74 0
-4 -41 -75 0
-4 41 75 0
4 -41 75 0
4 41 -75 0
-2 -42 -76 0
-2 42 76 0
2 -42 76 0
2 42 -76 0
-5 -43 -77 0
-5 43 77 0
5 -43 77 0
5 43 -77 0
-3 -44 -78 0
-3 44 78 0
3 -44 78 0
3 44 -78 0
-6 -45 -79 0
-6 45 79 0
6 -45 79 0
6 45 -79 0
-1 -46 -80 0
-1 46 80 0
1 -46 80 0
1 46 -80 0
-4 -47 -81 0
-4 47 81 0
4 -47 81 0
4 47 -81 0
-7 -48 -82 0
-7 48 82 0
7 -48 82 0
7 48 -82 0
-68 -49 -83 0
-68 49 83 0
68 -49 83 0
68 49 -83 0
-34 -50 -84 0
-34 50 84 0
34 -50 84 0
34 50 -84 0
-39 -51 -85 0
-39 51 85 0
39 -51 85 0
39 51 -85 0
-2 -52 -86 0
-2 52 86 0
2 -52 86 0
2 52 -86 0
-3 -53 -87 0
-3 53 87 0
3 -53 87 0
3 53 -87 0
-5 -54 -88 0
-5 54 88 0
5 -54 88 0
5 54 -88 0
-6 -55 -89 0
-6 55 89 0
6 -55 89 0
6 55 -89 0
-37 -56 -90 0
-37 56 90 0
37 -56 90 0
37 56 -90 0
-34 -57 -91 0
-34 57 91 0
34 -57 91 0
34 57 -91 0
-35 -58 -92 0
-35 58 92 0
35 -58 92 0
35 58 -92 0
74 75 76 77 78 79 80 81 82 83 84 85 86 87 88 89 90 91 92 73 0
1 -320 0
4 -320 0
-1 -4 320 0
-1 -321 0
-4 -321 0
1 4 321 0
-8 -322 0
-9 -322 0
8 9 322 0
7 -323 0
10 -323 0
-7 -10 323 0
-7 -324 0
-10 -324 0
7 10 324 0
-11 -325 0
-12 -325 0
11 12 325 0
4 -326 0
7 -326 0
-4 -7 326 0
1 -327 0
-13 -327 0
-1 13 327 0
-14 -328 0
-15 -328 0
14 15 328 0
3 -329 0
6 -329 0
-3 -6 329 0
-3 -330 0
-6 -330 0
3 6 330 0
-17 -331 0
-18 -331 0
17 18 331 0
16 -332 0
19 -332 0
-16 -19 332 0
-16 -333 0
-19 -333 0
16 19 333 0
-20 -334 0
-21 -334 0
20 21 334 0
-2 -335 0
-5 -335 0
2 5 335 0
2 -336 0
5 -336 0
-2 -5 336 0
3 -337 0
-22 -337 0
-3 22 337 0
23 -338 0
337 -338 0
-23 -337 338 0
6 -339 0
16 -339 0
-6 -16 339 0
23 -340 0
339 -340 0
-23 -339 340 0
-24 -341 0
-25 -341 0
24 25 341 0
-26 -342 0
341 -342 0
26 -341 342 0
23 -343 0
-27 -343 0
-23 27 343 0
-27 -344 0
329 -344 0
27 -329 344 0
16 -345 0
-22 -345 0
-16 22 345 0
-27 -346 0
345 -346 0
27 -345 346 0
329 -347 0
336 -347 0
-329 -336 347 0
336 -348 0
345 -348 0
-336 -345 348 0
-28 -349 0
-29 -349 0
28 29 349 0
-30 -350 0
349 -350 0
30 -349 350 0
-31 -351 0
350 -351 0
31 -350 351 0
-32 -352 0
351 -352 0
32 -351 352 0
-60 -353 0
-61 -353 0
60 61 353 0
-62 -354 0
-63 -354 0
62 63 354 0
-64 -355 0
354 -355 0
64 -354 355 0
353 -356 0
355 -356 0
-353 -355 356 0
-66 -357 0
-67 -357 0
66 67 357 0
-27 -358 0
-28 -358 0
27 28 358 0
-32 -359 0
-345 -359 0
32 345 359 0
32 -360 0
33 -360 0
-32 -33 360 0
5 -361 0
-360 -361 0
-5 360 361 0
-359 -362 0
361 -362 0
359 -361 362 0
-358 -363 0
-362 -363 0
358 362 363 0
2 -364 0
-363 -364 0
-2 363 364 0
336 -365 0
-350 -365 0
-336 350 365 0
33 -366 0
65 -366 0
-33 -65 366 0
-365 -367 0
366 -367 0
365 -366 367 0
-352 -368 0
367 -368 0
352 -367 368 0
-33 -369 0
-65 -369 0
33 65 369 0
351 -370 0
369 -370 0
-351 -369 370 0
-368 -371 0
-370 -371 0
368 370 371 0
-364 -372 0
-371 -372 0
364 371 372 0
13 -373 0
-68 -373 0
-13 68 373 0
-13 -374 0
68 -374 0
13 -68 374 0
-373 -375 0
-374 -375 0
373 374 375 0
69 -376 0
70 -376 0
-69 -70 376 0
71 -377 0
72 -377 0
-71 -72 377 0
376 -378 0
377 -378 0
-376 -377 378 0
-1 -379 0
-40 -379 0
1 40 379 0
1 -380 0
40 -380 0
-1 -40 380 0
-379 -381 0
-380 -381 0
379 380 381 0
-4 -382 0
-41 -382 0
4 41 382 0
4 -383 0
41 -383 0
-4 -41 383 0
-382 -384 0
-383 -384 0
382 383 384 0
-2 -385 0
-42 -385 0
2 42 385 0
2 -386 0
42 -386 0
-2 -42 386 0
-385 -387 0
-386 -387 0
385 386 387 0
-5 -388 0
-43 -388 0
5 43 388 0
5 -389 0
43 -389 0
-5 -43 389 0
-388 -390 0
-389 -390 0
388 389 390 0
-3 -391 0
-44 -391 0
3 44 391 0
3 -392 0
44 -392 0
-3 -44 392 0
-391 -393 0
-392 -393 0
391 392 393 0
-6 -394 0
-45 -394 0
6 45 394 0
6 -395 0
45 -395 0
-6 -45 395 0
-394 -396 0
-395 -396 0
394 395 396 0
-1 -397 0
-46 -397 0
1 46 397 0
1 -398 0
46 -398 0
-1 -46 398 0
-397 -399 0
-398 -399 0
397 398 399 0
-4 -400 0
-47 -400 0
4 47 400 0
4 -401 0
47 -401 0
-4 -47 401 0
-400 -402 0
-401 -402 0
400 401 402 0
-7 -403 0
-48 -403 0
7 48 403 0
7 -404 0
48 -404 0
-7 -48 404 0
-403 -405 0
-404 -405 0
403 404 405 0
-49 -406 0
-68 -406 0
49 68 406 0
49 -407 0
68 -407 0
-49 -68 407 0
-406 -408 0
-407 -408 0
406 407 408 0
-2 -409 0
-52 -409 0
2 52 409 0
2 -410 0
52 -410 0
-2 -52 410 0
-409 -411 0
-410 -411 0
409 410 411 0
-3 -412 0
-53 -412 0
3 53 412 0
3 -413 0
53 -413 0
-3 -53 413 0
-412 -414 0
-413 -414 0
412 413 414 0
-5 -415 0
-54 -415 0
5 54 415 0
5 -416 0
54 -416 0
-5 -54 416 0
-415 -417 0
-416 -417 0
415 416 417 0
-6 -418 0
-55 -418 0
6 55 418 0
6 -419 0
55 -419 0
-6 -55 419 0
-418 -420 0
-419 -420 0
418 419 420 0
-22 -421 0
71 -421 0
22 -71 421 0
22 -422 0
-71 -422 0
-22 71 422 0
-421 -423 0
-422 -423 0
421 422 423 0
56 -424 0
-423 -424 0
-56 423 424 0
-56 -425 0
423 -425 0
56 -423 425 0
-424 -426 0
-425 -426 0
424 425 426 0
-57 -427 0
84 -427 0
57 -84 427 0
57 -428 0
-84 -428 0
-57 84 428 0
-427 -429 0
-428 -429 0
427 428 429 0
50 -430 0
-429 -430 0
-50 429 430 0
-50 -431 0
429 -431 0
50 -429 431 0
-430 -432 0
-431 -432 0
430 431 432 0
